C101

VEHICLE
NUMBER     CAPACITY
  1         150

CUSTOMER
CUST NO.  XCOORD.   YCOORD.    DEMAND   READY TIME  DUE DATE   SERVICE   TIME
 
    0      -2.967797         104.726648          0          0       600          0   
    1      -2.980148         104.755182         112        240        360         20    
    2      -2.953332         104.735306         70         240        300         20   
    3      -2.915004         104.680069         40        180        300         20   
    4      -2.997204         104.707322         90         300         360         20   
    5      -2.957643         104.726935         60        360        420         20   
    6      -2.993812         104.726361         30        360        420         20   
    7      -2.955790         104.748410         30        360        420         20   
    8      -2.967871         104.746621         25        360        480         20   
    9      -2.962252         104.749706         25        360        480         20   
   10      -3.016815         104.720934         25        300        360         20   
   11      -3.052264         104.784511         20        300        360         20   
